x04m01e1t1tp5
3053
3053
3053
3072
3129
3332
3332
3332
3332
3332
3332
3332
3332
3366
3397
3573
3573
3576
3576
3576
3581
3581
3581
3581
3581
3581
3581
3581
3581
3581
3581
3581
3581
3581
3581
3581
3581
3581
3609
3609
3609
3609
3609
3609
3609
3609
3609
3609
3609
3609
3609
3609
3609
3609
3609
3609
3609
3609
3609
3609
3609
3609
3609
3609
3609
3609
3609
3609
3609
3609
3609
3609
3609
3609
3609
3609
3609
3609
3609
3609
3609
3609
3609
3609
3609
3609
3609
3609
3609
3609
3609
3609
3609
3609
3609
3609
3609
3609
3675
3675
3675
3675
3675
3675
3675
3675
3675
3675
3675
3675
3675
3675
3675
3675
3675
3675
3675
3675
3675
3675
3675
3675
3675
3675
3675
3675
3675
3675
3675
3675
3675
3675
3675
3729
3729
3729
3729
3729
3729
3729
3729
3729
3729
3729
3729
3729
3729
3729
3729
3729
3729
3729
3729
3729
3729
3729
3729
3729
3729
3729
3729
3729
3754
3754
3754
3754
3754
3754
3754
3754
3754
3754
3754
3754
3754
3754
3754
3754
3754
3754
3754
3754
3754
3754
3754
3754
3754
3754
3754
3754
3754
3754
3754
3754
3754
3754
3754
3754
3754
3754
3754
3754
3754
3754
3754
3754
3754
3754
3754
3754
3754
3754
3754
3754
3754
3754
3754
3754
3754
3754
3754
3754
3754
3754
3754
3754
3754
3754
3754
3754
3754
3754
3754
3754
3754
3754
3754
3754
3754
3754
3754
3754
3754
3754
3754
3754
3754
3754
3754
3754
3754
3754
3754
3754
3754
3754
3754
3754
3754
3754
3754
3754
3754
3754
3754
3754
3754
3754
3754
3754
3754
3754
3754
3754
3754
3754
3754
3754
3754
3754
3754
3754
3754
3754
3754
3754
3754
3754
3754
3754
3754
3754
3754
3754
3754
3754
3754
3754
3754
3754
3754
3754
3754
3754
3754
3754
3754
3754
3754
3754
3754
3754
3754
3754
3782
3782
3782
3782
3782
3782
3782
3782
3782
3782
3782
3782
3782
3782
3782
3782
3782
3782
3782
3782
3782
3782
3782
3782
3782
3782
3782
3782
3782
3782
3782
3782
3782
3782
3782
3782
3782
3782
3782
3782
3782
3794
3794
3794
3794
3794
3794
3794
3794
3794
3794
3794
3794
3794
3794
3794
3794
3794
3794
3794
3794
3794
3794
3794
3794
3794
3794
3794
3794
3794
3794
3794
3794
3794
3794
3794
3794
3794
3794
3794
3794
3794
3794
3794
3794
3794
3794
3794
3794
3794
3794
3794
3794
3794
3794
3794
3796
3796
3796
3796
3796
3796
3796
3796
3796
3796
3796
3796
3796
3796
3796
3796
3796
3796
3796
3796
3796
3796
3796
3796
3796
3796
3796
3796
3859
3859
3859
3859
3859
3859
3859
3859
3859
3859
3859
3859
3859
3859
3859
3859
3859
3859
3859
3859
3859
3859
3859
3859
3859
3859
3859
3859
3859
3859
3859
3859
3859
3859
3859
3859
3859
3859
3859
3859
3859
3859
3859
3859
3859
3859
3859
3859
3859
3859
3867
3867
3867
3867
3867
3867
3867
3867
3867
3867
3867
3867
3867
3867
3867
3867
3867
3867
3867
3867
3867
3867
3867
3867
3867
3867
3867
3867
3867
3867
3867
3867
3867
3867
3867
3867
3867
3867
3867
3867
3867
3867
3867
3867
3867
3867
3867
3867
3867
3867
3867
3867
3867
3867
3867
3867
3867
3867
3867
3867
3867
3867
3867
3867
3867
3867
3867
3867
3867
3867
3867
3867
3867
3867
3867
3867
3867
3867
3867
3867
3867
3867
3867
3867
3867
3867
3867
3867
3867
3867
3867
3867
3867
3867
3867
3867
3867
3867
3867
3867
3867
3867
3867
3867
3867
3867
3867
3867
3867
3867
3867
3867
3867
3867
3867
3867
3894
3894
3894
3894
3894
3894
3894
3894
3894
3894
3894
3894
3894
3894
3894
3894
3894
3904
3904
3904
3904
3904
3904
3904
3904
3904
3904
3904
3904
3904
3904
3904
3904
3904
3904
3904
3904
3904
3904
3904
3904
3904
3904
3904
3904
3904
3904
3904
3904
3904
3904
3904
3904
3904
3904
3904
3904
3904
3904
3904
3904
3904
3904
3904
3904
3904
3904
3904
3904
3904
3904
3904
3904
3904
3904
3912
3912
3912
3912
3912
3912
3912
3912
3912
3912
3912
3912
3912
3966
3966
3966
3966
3966
3966
3966
3966
3966
3966
3966
3966
3966
3966
3966
3966
3966
3966
3966
3966
3966
3966
3966
3966
3966
3966
3966
3966
3966
3966
3966
3966
3966
3966
3966
3966
3966
3966
3966
3966
3966
3966
3966
3966
3966
3966
3966
3966
3966
3966
3966
3966
3966
3966
3966
3966
3966
3966
3966
3966
3966
3966
3966
3966
3966
3966
3966
3966
3966
3966
3966
3966
3966
3966
3966
3966
3966
3966
3966
3966
3966
3966
3966
3966
3966
3966
3966
3966
3966
3966
3966
3966
3966
3966
3966
3966
3966
3966
3966
3966
3966
3966
3966
3966
3966
3966
3970
3970
3970
3970
3970
3970
3970
3970
3970
3970
3970
3970
3970
3970
3970
3970
3970
3970
3970
3970
3970
3970
3970
3970
3970
3970
3970
3970
3970
3970
3970
3970
3970
3970
3970
3970
3970
3970
3970
3970
3970
3970
3970
3970
3970
3970
3970
3970
3970
3970
3970
3970
3970
3970
3970
3970
3970
3970
3970
3970
3970
3970
3970
3970
3970
3970
3970
3970
3970
3970
3970
3970
3970
3970
3970
3970
3970
3990
3990
3990
3990
3990
3990
3990
3990
3990
3990
3990
3990
3990
3990
3990
3990
3990
3990
3990
3990
3990
3990
3990
3990
3990
3990
3990
3990
3990
3990
3990
3990
3990
3990
3990
3990
3990
3990
3990
3990
3990
3990
3990
3990
3990
3990
3990
3990
3990
3990
3990
3990
3990
3990
3990
3990
3990
3990
3990
3990
3990
3990
3990
3990
3990
3990
3990
3990
3990
3990
3990
3990
3990
3990
3990
3990
3990
3990
3990
3990
3990
3990
4044
4044
4044
4044
4044
4044
4044
4044
4044
4044
4044
4044
4044
4044
4044
4044
4044
4044
4044
4044
4044
4044
4044
4044
4044
4044
4044
4044
4044
4044
4044
4044
4044
4044
4044
4044
4044
4044
4044
4044
4044
4044
4044
